c Random generated cnf formula, satisfiable: true
p cnf 10 50
-6 4 -8 0
6 5 -1 0
6 3 -4 0
-6 -2 10 0
-10 -1 3 0
8 -10 9 0
8 -7 -1 0
4 8 5 0
9 -10 6 0
10 3 -7 0
9 -2 -4 0
5 -3 -4 0
9 -2 10 0
5 -7 -3 0
10 8 -1 0
10 4 1 0
8 5 3 0
-6 3 10 0
4 -5 2 0
7 1 3 0
10 3 7 0
9 5 1 0
7 8 2 0
10 -3 7 0
-6 8 -4 0
4 3 1 0
-6 9 5 0
-2 -4 9 0
-10 -9 8 0
8 9 -7 0
-4 10 -8 0
-8 7 -3 0
-1 -2 -3 0
7 -8 -3 0
-3 -1 9 0
5 -1 8 0
-8 -1 -5 0
2 3 -10 0
7 -1 -4 0
10 8 -7 0
-10 -8 4 0
-1 7 3 0
-7 8 -10 0
-8 -2 -4 0
-5 -9 -8 0
-6 -1 9 0
-6 3 1 0
-4 -9 -10 0
9 -2 -6 0
8 6 -9 0
